DIMENSION: 6
EDGE_WEIGHT_TYPE: EXPLICIT
EDGE_WEIGHT_FORMAT: FULL_MATRIX
EDGE_WEIGHT_SECTION:
32767 15 64 32767 57 48 
15 32767 32767 46 34 74 
64 32767 32767 41 32767 12 
32767 46 41 32767 86 55 
57 34 32767 86 32767 31 
48 74 12 55 31 32767 
EOF